Cu C  H                                 
   3.54700000000000     
     2.1213203435596450    0.0000000000000000    0.0000000000000000
     0.0000000000000000    2.1213203435596450    0.0000000000000000
     0.0000000000000000    0.0000000000000000    6.0000000000000000
   Cu   C    H 
    36     2     2
Selective dynamics
Direct
  0.1666666666666643  0.1666666666666643  0.0833807709278318   F   F   F
  0.1666666666666643  0.5000000000000000  0.0833807709278318   F   F   F
  0.1666666666666643  0.8333333333333357  0.0833807709278318   F   F   F
  0.5000000000000000  0.1666666666666643  0.0833807709278318   F   F   F
  0.5000000000000000  0.5000000000000000  0.0833807709278318   F   F   F
  0.5000000000000000  0.8333333333333357  0.0833807709278318   F   F   F
  0.8333333333333357  0.1666666666666643  0.0833807709278318   F   F   F
  0.8333333333333357  0.5000000000000000  0.0833807709278318   F   F   F
  0.8333333333333357  0.8333333333333357  0.0833807709278318   F   F   F
  0.0000000000000000  0.0000000000000000  0.1666736236119419   F   F   F
  0.0000000000000000  0.3333333333333357  0.1666736236119419   F   F   F
  0.0000000000000000  0.6666666666666643  0.1666736236119419   F   F   F
  0.3333333333333357  0.0000000000000000  0.1666736236119419   F   F   F
  0.3333333333333357  0.3333333333333357  0.1666736236119419   F   F   F
  0.3333333333333357  0.6666666666666643  0.1666736236119419   F   F   F
  0.6666666666666643  0.0000000000000000  0.1666736236119419   F   F   F
  0.6666666666666643  0.3333333333333357  0.1666736236119419   F   F   F
  0.6666666666666643  0.6666666666666643  0.1666736236119419   F   F   F
  0.1617831807330640  0.1623620917067009  0.2513998987028150   T   T   T
  0.1680371613644329  0.4964522294258004  0.2524256964793011   T   T   T
  0.1734572283460380  0.8271004382382895  0.2531168816805185   T   T   T
  0.4959858155501908  0.1686227772564470  0.2526036540572556   T   T   T
  0.4996094393782176  0.4999903779760828  0.2498815009183518   T   T   T
  0.5039622562579323  0.8314890962946546  0.2525301838486508   T   T   T
  0.8264560793356428  0.1728860170320233  0.2530627846568695   T   T   T
  0.8310530238441035  0.5035398409637265  0.2524285917769822   T   T   T
  0.8380876437509944  0.8376464225983117  0.2514776962032626   T   T   T
  0.0003740152082376  0.0002631458037750  0.3362180738357298   T   T   T
  0.9846284583464527  0.3336579909146726  0.3354674554935836   T   T   T
  0.0137070182573370  0.6665637284043257  0.3353964249187054   T   T   T
  0.3338145791425426  0.9870379812803094  0.3354329529822628   T   T   T
  0.3143598328914719  0.3168106496101695  0.3372811277520031   T   T   T
  0.3481639441019098  0.6523333061489496  0.3426523254640716   T   T   T
  0.6668775600422275  0.0130186296728704  0.3354601926865235   T   T   T
  0.6500104794146800  0.3475991375005715  0.3428430852379783   T   T   T
  0.6840334847521782  0.6829853783234419  0.3371945632926358   T   T   T
  0.4341725677827957  0.4362844234521577  0.4071393199871219   T   T   T
  0.5635774059175386  0.5642651027843117  0.4071132018065257   T   T   T
  0.3810800210924251  0.3840574230644928  0.4516349455049486   T   T   T
  0.6163216630116622  0.6172566051034100  0.4515539513113020   T   T   T
 
  0.00000000E+00  0.00000000E+00  0.00000000E+00
  0.00000000E+00  0.00000000E+00  0.00000000E+00
  0.00000000E+00  0.00000000E+00  0.00000000E+00
  0.00000000E+00  0.00000000E+00  0.00000000E+00
  0.00000000E+00  0.00000000E+00  0.00000000E+00
  0.00000000E+00  0.00000000E+00  0.00000000E+00
  0.00000000E+00  0.00000000E+00  0.00000000E+00
  0.00000000E+00  0.00000000E+00  0.00000000E+00
  0.00000000E+00  0.00000000E+00  0.00000000E+00
  0.00000000E+00  0.00000000E+00  0.00000000E+00
  0.00000000E+00  0.00000000E+00  0.00000000E+00
  0.00000000E+00  0.00000000E+00  0.00000000E+00
  0.00000000E+00  0.00000000E+00  0.00000000E+00
  0.00000000E+00  0.00000000E+00  0.00000000E+00
  0.00000000E+00  0.00000000E+00  0.00000000E+00
  0.00000000E+00  0.00000000E+00  0.00000000E+00
  0.00000000E+00  0.00000000E+00  0.00000000E+00
  0.00000000E+00  0.00000000E+00  0.00000000E+00
  0.00000000E+00  0.00000000E+00  0.00000000E+00
  0.00000000E+00  0.00000000E+00  0.00000000E+00
  0.00000000E+00  0.00000000E+00  0.00000000E+00
  0.00000000E+00  0.00000000E+00  0.00000000E+00
  0.00000000E+00  0.00000000E+00  0.00000000E+00
  0.00000000E+00  0.00000000E+00  0.00000000E+00
  0.00000000E+00  0.00000000E+00  0.00000000E+00
  0.00000000E+00  0.00000000E+00  0.00000000E+00
  0.00000000E+00  0.00000000E+00  0.00000000E+00
  0.00000000E+00  0.00000000E+00  0.00000000E+00
  0.00000000E+00  0.00000000E+00  0.00000000E+00
  0.00000000E+00  0.00000000E+00  0.00000000E+00
  0.00000000E+00  0.00000000E+00  0.00000000E+00
  0.00000000E+00  0.00000000E+00  0.00000000E+00
  0.00000000E+00  0.00000000E+00  0.00000000E+00
  0.00000000E+00  0.00000000E+00  0.00000000E+00
  0.00000000E+00  0.00000000E+00  0.00000000E+00
  0.00000000E+00  0.00000000E+00  0.00000000E+00
  0.00000000E+00  0.00000000E+00  0.00000000E+00
  0.00000000E+00  0.00000000E+00  0.00000000E+00
  0.00000000E+00  0.00000000E+00  0.00000000E+00
  0.00000000E+00  0.00000000E+00  0.00000000E+00
